************************************************************************
file with basedata            : n/a
initial value random generator: n/a
************************************************************************
projects                      :  1
jobs (incl. supersource/sink ):  122
horizon                       :  677
RESOURCES
  - renewable                 :  4   R
  - nonrenewable              :  0   N
  - doubly constrained        :  0   D
************************************************************************
PROJECT INFORMATION:
pronr.  #jobs rel.date duedate tardcost  MPM-Time
    1    120      0      104        5      104
************************************************************************
PRECEDENCE RELATIONS:
jobnr.    #modes  #successors   successors
   1        1          3           2   3   4
   2        1          3           9  10  42
   3        1          3          11  12  23
   4        1          3           5   6   7
   5        1          3           8  17  74
   6        1          3          27  62  78
   7        1          3          25  34  93
   8        1          3          13  15  91
   9        1          2          44  54
  10        1          3          14  16  59
  11        1          3          26  92 105
  12        1          3          28  30  32
  13        1          3          35  53 120
  14        1          3          22  65  86
  15        1          2          77 104
  16        1          3          20  33  39
  17        1          3          18  19  24
  18        1          3          21  80 103
  19        1          2          37  50
  20        1          2          31  50
  21        1          1          41
  22        1          2          67  78
  23        1          3          53  80  99
  24        1          3          37  59  70
  25        1          3          44  62 110
  26        1          3          46  66  95
  27        1          3          38  39  74
  28        1          3          29  36  38
  29        1          2          40  46
  30        1          3          52  67 107
  31        1          1          85
  32        1          3          36  37  88
  33        1          3          34  54 115
  34        1          3          56  82  90
  35        1          3          48  89 100
  36        1          3          45  48  55
  37        1          3          51  57  71
  38        1          1          51
  39        1          3          43  63  79
  40        1          3          60  64  70
  41        1          3          43  55 109
  42        1          3          47  55  62
  43        1          3          51  83 118
  44        1          3          53  74  83
  45        1          3          59  69  91
  46        1          2          49  61
  47        1          3          60  64  81
  48        1          1          76
  49        1          1          96
  50        1          3          54  75  85
  51        1          2          87 113
  52        1          2          58 111
  53        1          1         108
  54        1          3          61  82  89
  55        1          3          58  86  87
  56        1          3          72  88  98
  57        1          3          68  73  78
  58        1          3          83  94 116
  59        1          3          66  72  84
  60        1          2          63  67
  61        1          1         103
  62        1          3          63  77  98
  63        1          2          82 114
  64        1          2          66  88
  65        1          3          71  81  97
  66        1          3          71  73  90
  67        1          1          68
  68        1          3          76  91 105
  69        1          2          72  73
  70        1          3          76  79  96
  71        1          1         107
  72        1          2         101 110
  73        1          3          77 100 104
  74        1          2          81 111
  75        1          3          79  80  92
  76        1          1         121
  77        1          1         108
  78        1          1          84
  79        1          3          86  90 106
  80        1          3          93  94 101
  81        1          2          85  87
  82        1          1          99
  83        1          1         112
  84        1          3          93  94  99
  85        1          1         118
  86        1          1         115
  87        1          3          95 102 105
  88        1          2          89 112
  89        1          2          92 108
  90        1          2          97 112
  91        1          1          96
  92        1          1         110
  93        1          2          97 102
  94        1          2          95 102
  95        1          1         106
  96        1          2          98 119
  97        1          2         100 104
  98        1          2         103 106
  99        1          1         101
 100        1          1         109
 101        1          1         107
 102        1          2         114 115
 103        1          1         114
 104        1          2         109 113
 105        1          1         119
 106        1          1         117
 107        1          1         113
 108        1          1         121
 109        1          1         111
 110        1          1         116
 111        1          1         116
 112        1          1         121
 113        1          1         117
 114        1          1         120
 115        1          1         117
 116        1          1         118
 117        1          1         120
 118        1          1         119
 119        1          1         122
 120        1          1         122
 121        1          1         122
 122        1          0        
************************************************************************
REQUESTS/DURATIONS:
jobnr. mode duration  R 1  R 2  R 3  R 4
------------------------------------------------------------------------
  1      1     0    
  2      1     1       7
                       9
                       8
                       2
  3      1     9       0   0   8   8   8   8   8   8   0
                       0   0   0   0   0   0   0   0   0
                       0   0   6   6   6   6   6   6   0
                       0   0   9   9   9   9   9   9   0
  4      1     4       5   5   5   5
                       0   0   0   0
                       0   0   0   0
                       0   0   0   0
  5      1    10       0   0   0   0   0   0   0   0   0   0
                       0   0   0   0   0   0   0   0   0   0
                      10  10  10  10   0  10  10  10   0  10
                       2   2   2   2   0   2   2   2   0   2
  6      1     3       0   0   0
                      10  10  10
                       0   0   0
                       0   0   0
  7      1     9       0   0   0   0   0   0   0   0   0
                       6   6   6   6   6   6   6   6   6
                       0   0   0   0   0   0   0   0   0
                       0   0   0   0   0   0   0   0   0
  8      1     5       0  10  10  10  10
                       0   0   0   0   0
                       0   0   0   0   0
                       0   3   3   3   3
  9      1     7       0   0   0   0   0   0   0
                       8   8   8   0   8   8   8
                      10  10  10   0  10  10  10
                       8   8   8   0   8   8   8
 10      1     1       5
                       0
                       0
                       8
 11      1     9       0   0   0   0   0   0   0   0   0
                       7   0   7   0   7   0   7   0   0
                       0   0   0   0   0   0   0   0   0
                       0   0   0   0   0   0   0   0   0
 12      1     3       0   0   0
                       0   0   0
                       4   4   4
                      10  10  10
 13      1     1       0
                       2
                      10
                       7
 14      1     8       0   0   0   0   0   0   0   0
                       6   0   6   0   6   6   6   6
                       0   0   0   0   0   0   0   0
                       0   0   0   0   0   0   0   0
 15      1     2       0   0
                       0   0
                       0   0
                       4   0
 16      1     4       3   3   3   3
                       0   0   0   0
                       8   8   8   8
                       0   0   0   0
 17      1     8       0   0   0   0   0   0   0   0
                      10  10  10  10  10  10  10  10
                       5   5   5   5   5   5   5   5
                       0   0   0   0   0   0   0   0
 18      1     7       0   0   7   0   7   0   7
                       0   0   0   0   0   0   0
                       0   0   0   0   0   0   0
                       0   0   0   0   0   0   0
 19      1     1       0
                       0
                       2
                       0
 20      1     3       6   6   6
                       0   0   0
                       4   4   4
                       0   0   0
 21      1     5       0   0   0   0   0
                       4   0   4   0   4
                       0   0   0   0   0
                       9   0   9   0   9
 22      1     6       6   6   6   6   6   6
                       0   0   0   0   0   0
                       8   8   8   8   8   8
                       0   0   0   0   0   0
 23      1     9       5   5   5   5   5   5   5   5   0
                       9   9   9   9   9   9   9   9   0
                       0   0   0   0   0   0   0   0   0
                       6   6   6   6   6   6   6   6   0
 24      1     2       6   6
                       7   7
                       7   7
                       0   0
 25      1    10       0   0   0   0   0   0   0   0   0   0
                       1   0   1   1   1   1   1   0   0   1
                      10   0  10  10  10  10  10   0   0  10
                       0   0   0   0   0   0   0   0   0   0
 26      1     7       9   9   9   9   0   9   9
                       0   0   0   0   0   0   0
                       8   8   8   8   0   8   8
                       0   0   0   0   0   0   0
 27      1     3       3   3   3
                       5   5   5
                       0   0   0
                       0   0   0
 28      1     2       0   0
                       0   7
                       0   0
                       0   0
 29      1     6       0   0   0   0   0   0
                       5   5   5   5   5   0
                       3   3   3   3   3   0
                       0   0   0   0   0   0
 30      1     1       0
                       0
                       0
                       7
 31      1     8       0   0   0   0   0   0   0   0
                      10  10  10  10  10  10  10  10
                       0   0   0   0   0   0   0   0
                       0   0   0   0   0   0   0   0
 32      1     7       9   9   9   0   9   0   9
                       4   4   4   0   4   0   4
                       9   9   9   0   9   0   9
                       0   0   0   0   0   0   0
 33      1     7       6   6   6   6   6   6   6
                       6   6   6   6   6   6   6
                       0   0   0   0   0   0   0
                       8   8   8   8   8   8   8
 34      1     7       0   0   0   0   0   0   0
                       0   0   0   0   0   0   0
                       0   0   0   0   0   0   0
                       5   5   5   5   5   5   5
 35      1     9       0   0   0   0   0   0   0   0   0
                       6   6   6   6   6   0   0   6   6
                       0   0   0   0   0   0   0   0   0
                       0   0   0   0   0   0   0   0   0
 36      1     1       0
                       0
                       0
                       7
 37      1     5       0   0   0   0   0
                       4   0   4   4   4
                       0   0   0   0   0
                       3   0   3   3   3
 38      1     2       0   0
                       0   0
                       0   7
                       0   4
 39      1     3       0   0   0
                       0   0   0
                       0   0   0
                       0   0   0
 40      1     7       8   8   0   8   8   8   8
                       3   3   0   3   3   3   3
                       0   0   0   0   0   0   0
                       0   0   0   0   0   0   0
 41      1     8       2   2   2   2   0   2   0   2
                       0   0   0   0   0   0   0   0
                       6   6   6   6   0   6   0   6
                       0   0   0   0   0   0   0   0
 42      1     8       0   0   0   0   0   0   0   0
                      10  10   0  10  10  10   0   0
                       5   5   0   5   5   5   0   0
                       0   0   0   0   0   0   0   0
 43      1    10       0   0   0   0   0   0   0   0   0   0
                       0   3   3   3   0   3   3   0   3   3
                       0   4   4   4   0   4   4   0   4   4
                       0   0   0   0   0   0   0   0   0   0
 44      1     5       0   0   0   0   0
                       0   6   0   6   6
                       0   2   0   2   2
                       0   5   0   5   5
 45      1     8       5   5   5   5   5   5   5   5
                       0   0   0   0   0   0   0   0
                       0   0   0   0   0   0   0   0
                       0   0   0   0   0   0   0   0
 46      1     9       0   0   0   0   0   0   0   0   0
                       0   0   0   0   0   0   0   0   0
                       1   1   1   1   0   1   1   1   1
                       2   2   2   2   0   2   2   2   2
 47      1     2       0   0
                       9   9
                       3   3
                       0   0
 48      1     7       0   0   0   0   0   0   0
                       7   7   7   7   7   7   7
                       0   0   0   0   0   0   0
                       0   0   0   0   0   0   0
 49      1     6       3   3   3   3   3   3
                       6   6   6   6   6   6
                       8   8   8   8   8   8
                       4   4   4   4   4   4
 50      1     3       6   6   6
                      10  10  10
                       0   0   0
                       0   0   0
 51      1     8       0   0   0   0   0   0   0   0
                      10   0  10  10  10  10  10  10
                       7   0   7   7   7   7   7   7
                       0   0   0   0   0   0   0   0
 52      1     2       0   0
                       0   7
                       0   0
                       0   1
 53      1     8       0   0   0   0   0   0   0   0
                       5   5   5   0   5   5   5   5
                       2   2   2   0   2   2   2   2
                       3   3   3   0   3   3   3   3
 54      1     2       0   0
                      10  10
                       4   4
                       0   0
 55      1    10      10  10   0  10   0  10  10  10  10  10
                      10  10   0  10   0  10  10  10  10  10
                       1   1   0   1   0   1   1   1   1   1
                       0   0   0   0   0   0   0   0   0   0
 56      1     8       0   0   0   0   0   0   0   0
                       8   8   8   8   8   8   0   8
                       0   0   0   0   0   0   0   0
                       2   2   2   2   2   2   0   2
 57      1     2       0   0
                       2   2
                       7   7
                       0   0
 58      1     3       0   0   9
                       0   0   9
                       0   0   9
                       0   0   9
 59      1     9       1   1   0   1   1   1   1   1   1
                       0   0   0   0   0   0   0   0   0
                       0   0   0   0   0   0   0   0   0
                       9   9   0   9   9   9   9   9   9
 60      1     3       0   7   7
                       0   7   7
                       0   0   0
                       0   0   0
 61      1     7       9   9   0   0   9   9   9
                       0   0   0   0   0   0   0
                      10  10   0   0  10  10  10
                       0   0   0   0   0   0   0
 62      1     7       0   0   0   0   0   0   0
                       2   2   2   0   0   2   2
                       0   0   0   0   0   0   0
                       5   5   5   0   0   5   5
 63      1     9       0   0   0   0   0   0   0   0   0
                       0   5   0   0   5   5   0   5   5
                       0   0   0   0   0   0   0   0   0
                       0   7   0   0   7   7   0   7   7
 64      1     1       0
                       7
                       0
                       1
 65      1     3       0   0   0
                       0   0   0
                       0   3   0
                       0   0   0
 66      1    10       0   0   0   0   0   0   0   0   0   0
                       0   0   0   0   0   0   0   0   0   0
                       4   4   4   4   4   4   4   0   4   4
                       9   9   9   9   9   9   9   0   9   9
 67      1     9       0   0   0   0   0   0   0   0   0
                       0   6   0   6   6   6   6   6   0
                       0   0   0   0   0   0   0   0   0
                       0   0   0   0   0   0   0   0   0
 68      1     4       0   0   0   0
                      10   0  10  10
                       0   0   0   0
                       0   0   0   0
 69      1     7       0   2   2   2   2   2   2
                       0   0   0   0   0   0   0
                       0   9   9   9   9   9   9
                       0   9   9   9   9   9   9
 70      1     9       0   0   0   0   0   0   0   0   0
                       0   0   0   0   0   0   0   0   0
                       6   6   6   6   6   6   6   6   6
                       2   2   2   2   2   2   2   2   2
 71      1     7       0   9   9   0   9   0   9
                       0   1   1   0   1   0   1
                       0   0   0   0   0   0   0
                       0   9   9   0   9   0   9
 72      1     7       0   0   0   0   0   0   0
                       0   0   0   0   0   0   0
                       9   9   9   9   9   9   9
                       0   0   0   0   0   0   0
 73      1     4       0   0   0   0
                       0   0   0   0
                       7   0   7   7
                       5   0   5   5
 74      1     2       7   7
                       2   2
                       0   0
                       7   7
 75      1     2       0   0
                      10   0
                       3   0
                       0   0
 76      1     4       0   0   0   0
                       0   0   0   0
                       0   0   0   0
                       0   5   5   5
 77      1     7       1   0   1   1   1   1   1
                       4   0   4   4   4   4   4
                       1   0   1   1   1   1   1
                       0   0   0   0   0   0   0
 78      1     2       0   5
                       0   0
                       0   7
                       0   0
 79      1     8       0   0   0   0   0   0   0   0
                       0   0   0   0   0   0   0   0
                       6   6   6   6   6   6   6   6
                       0   0   0   0   0   0   0   0
 80      1     5       0   0   0   0   0
                       0   9   9   9   9
                       0   5   5   5   5
                       0   0   0   0   0
 81      1     2       0   0
                       6   6
                       0   0
                       0   0
 82      1     6       5   5   0   5   0   5
                       0   0   0   0   0   0
                       2   2   0   2   0   2
                       2   2   0   2   0   2
 83      1     1       0
                       0
                       0
                       0
 84      1     9       4   4   4   0   4   0   4   4   4
                       0   0   0   0   0   0   0   0   0
                       5   5   5   0   5   0   5   5   5
                       4   4   4   0   4   0   4   4   4
 85      1    10       0   0   0   0   0   0   0   0   0   0
                      10   0  10  10  10   0  10  10   0  10
                       2   0   2   2   2   0   2   2   0   2
                       0   0   0   0   0   0   0   0   0   0
 86      1     9       0   0   0   0   0   0   0   0   0
                       0   9   0   9   9   9   9   9   9
                       0   0   0   0   0   0   0   0   0
                       0   1   0   1   1   1   1   1   1
 87      1     9       1   0   0   1   1   1   0   1   1
                       0   0   0   0   0   0   0   0   0
                       2   0   0   2   2   2   0   2   2
                       0   0   0   0   0   0   0   0   0
 88      1     5       0   0   0   0   0
                       0   0   0   0   0
                       0   0   0   0   0
                       5   5   5   5   5
 89      1     5       2   0   2   0   0
                       0   0   0   0   0
                       4   0   4   0   0
                       0   0   0   0   0
 90      1     3       0   0   0
                       3   3   0
                       0   0   0
                       5   5   0
 91      1     8       9   9   9   9   9   9   9   9
                       3   3   3   3   3   3   3   3
                       0   0   0   0   0   0   0   0
                       0   0   0   0   0   0   0   0
 92      1     1       2
                       0
                      10
                       0
 93      1     8       2   2   2   2   2   2   2   0
                       9   9   9   9   9   9   9   0
                       1   1   1   1   1   1   1   0
                       0   0   0   0   0   0   0   0
 94      1    10       0   0   0   0   0   0   0   0   0   0
                       0   6   0   0   6   6   6   0   6   6
                       0   0   0   0   0   0   0   0   0   0
                       0  10   0   0  10  10  10   0  10  10
 95      1     4       4   0   0   4
                       0   0   0   0
                       0   0   0   0
                       4   0   0   4
 96      1     6       0   0   0   0   0   0
                       2   2   2   0   2   2
                       0   0   0   0   0   0
                       0   0   0   0   0   0
 97      1     5       0   0   0   0   0
                       7   7   7   0   7
                       0   0   0   0   0
                       0   0   0   0   0
 98      1     9       0   0   0   0   0   0   0   0   0
                       0   0   0   0   0   0   0   0   0
                       8   8   0   0   8   8   8   8   8
                       0   0   0   0   0   0   0   0   0
 99      1    10       0   0   0   0   0   0   0   0   0   0
                       0   0   0   0   0   0   0   0   0   0
                       1   0   1   1   1   0   1   1   1   1
                       6   0   6   6   6   0   6   6   6   6
100      1    10       2   2   2   2   0   2   2   2   2   2
                       4   4   4   4   0   4   4   4   4   4
                       7   7   7   7   0   7   7   7   7   7
                       0   0   0   0   0   0   0   0   0   0
101      1     9       0   0   0   0   0   0   0   0   0
                       0   0   0   0   0   0   0   0   0
                       1   0   1   1   1   1   0   1   0
                       8   0   8   8   8   8   0   8   0
102      1     7       0   0   0   0   0   0   0
                       0   0   4   4   4   4   0
                       0   0   0   0   0   0   0
                       0   0   0   0   0   0   0
103      1     4       0   0   0   0
                       5   5   5   5
                       3   3   3   3
                       4   4   4   4
104      1     1       0
                       0
                       0
                       3
105      1     7       0   0   0   0   0   0   0
                       8   8   8   0   8   8   8
                       2   2   2   0   2   2   2
                       5   5   5   0   5   5   5
106      1     9       0   0   0   0   0   0   0   0   0
                       0   0   0   0   0   0   0   0   0
                       0   0   0   0   0   0   0   0   0
                       0   8   8   8   8   8   8   8   0
107      1     8       9   9   9   0   0   9   0   9
                       0   0   0   0   0   0   0   0
                       0   0   0   0   0   0   0   0
                       3   3   3   0   0   3   0   3
108      1    10       9   9   9   9   9   9   0   0   0   9
                      10  10  10  10  10  10   0   0   0  10
                       4   4   4   4   4   4   0   0   0   4
                       7   7   7   7   7   7   0   0   0   7
109      1     9       8   8   8   8   8   8   8   8   8
                       3   3   3   3   3   3   3   3   3
                       0   0   0   0   0   0   0   0   0
                       0   0   0   0   0   0   0   0   0
110      1     2       0   0
                       2   0
                       5   0
                       4   0
111      1     4       0   0   0   0
                       6   6   6   6
                       0   0   0   0
                       3   3   3   3
112      1     3       2   2   2
                       5   5   5
                       0   0   0
                       6   6   6
113      1     4       2   2   2   2
                       0   0   0   0
                       0   0   0   0
                       5   5   5   5
114      1     1       0
                       0
                       0
                       0
115      1     2       0   0
                       0   0
                       0   0
                       3   3
116      1     2       7   7
                      10  10
                       0   0
                       5   5
117      1     4       8   8   8   8
                       0   0   0   0
                       8   8   8   8
                       0   0   0   0
118      1    10       0   0   0   0   0   0   0   0   0   0
                       0   0   0   0   0   0   0   0   0   0
                       6   6   6   6   6   6   6   6   0   6
                       0   0   0   0   0   0   0   0   0   0
119      1    10       7   0   7   0   7   7   7   7   7   7
                       4   0   4   0   4   4   4   4   4   4
                       7   0   7   0   7   7   7   7   7   7
                       0   0   0   0   0   0   0   0   0   0
120      1     3       0   0   0
                       0   0   0
                       0   8   0
                       0   3   0
121      1     1       6
                       0
                       0
                       6
122      1     0    
************************************************************************
RESOURCEAVAILABILITIES:
  R 1  R 2  R 3  R 4

  19  19  19  19   0  19  19  19  19  19  19   0   0  19  19  19  19  19  19  19   0  19  19  19  19  19  19  19  19  19  19  19   0  19  19   0  19   0  19  19  19  19  19  19  19   0  19   0  19   0  19   0  19  19   0  19  19  19  19  19   0  19   0  19  19  19  19  19   0   0  19  19  19  19  19  19  19  19  19  19  19  19  19  19  19  19   0  19  19  19  19   0  19  19  19   0  19  19  19  19   0  19  19  19  19  19  19  19   0  19  19  19   0  19  19  19  19  19  19  19  19   0  19   0  19  19  19  19  19  19  19  19  19  19   0  19  19  19  19  19  19  19  19   0  19  19  19  19  19  19  19   0  19  19  19  19   0  19  19   0  19  19  19  19  19  19  19  19  19  19  19   0  19  19  19  19  19  19  19  19  19  19  19  19  19  19  19  19  19  19  19  19  19  19  19  19  19  19  19  19  19  19  19  19  19  19  19  19  19  19   0  19  19  19  19  19  19  19  19  19  19  19  19   0   0  19  19  19   0  19  19   0  19  19  19  19  19  19  19   0  19  19  19   0   0  19  19  19  19  19  19  19  19  19  19  19  19  19   0  19  19  19   0  19  19   0  19  19  19   0  19  19   0  19  19   0  19  19  19  19  19  19  19  19   0  19  19  19   0  19  19   0   0  19  19  19  19  19  19   0  19   0  19  19  19  19   0  19  19  19  19  19  19   0  19  19   0  19  19  19  19  19  19   0  19  19  19  19  19  19  19  19   0  19  19  19  19  19  19  19   0  19  19  19  19  19  19  19   0  19   0   0  19  19  19  19  19  19  19  19  19  19  19  19  19  19  19  19   0  19  19  19  19  19   0  19  19  19  19  19  19  19   0   0  19   0  19  19  19   0   0  19  19  19  19  19  19  19  19  19  19   0  19  19  19  19   0  19  19  19  19   0  19  19  19  19  19  19  19  19  19  19  19   0  19  19   0  19   0  19  19  19  19  19  19  19  19  19  19  19  19  19  19   0  19   0  19  19  19  19  19  19   0  19  19  19  19  19  19   0  19  19  19  19   0  19  19  19   0  19  19  19  19  19  19   0  19  19  19   0  19   0  19  19  19  19  19  19  19   0  19  19  19  19  19  19  19  19  19  19  19  19   0  19  19  19  19  19  19   0  19  19  19  19  19  19  19  19  19  19  19  19   0  19  19  19   0  19  19  19   0   0  19  19  19  19  19  19  19  19  19  19  19  19  19  19   0  19  19  19  19  19   0   0  19   0  19  19  19   0  19  19  19  19  19  19  19  19  19  19  19  19  19  19   0  19  19  19   0  19   0  19  19   0  19  19  19  19   0   0  19  19  19  19   0  19  19  19   0  19  19  19  19  19   0  19  19  19  19  19  19  19  19  19  19  19  19  19  19  19  19  19  19  19   0  19  19   0  19  19   0  19  19  19  19  19   0  19  19   0  19   0  19  19  19   0   0  19   0  19  19   0  19  19  19  19   0  19  19  19  19  19  19   0  19  19  19   0  19  19  19  19   0  19  19   0  19

  25  25  25  25   0  25  25  25  25  25  25   0   0  25  25  25  25  25  25  25   0  25  25  25  25  25  25  25  25  25  25  25   0  25  25   0  25   0  25  25  25  25  25  25  25   0  25   0  25   0  25   0  25  25   0  25  25  25  25  25   0  25   0  25  25  25  25  25   0   0  25  25  25  25  25  25  25  25  25  25  25  25  25  25  25  25   0  25  25  25  25   0  25  25  25   0  25  25  25  25   0  25  25  25  25  25  25  25   0  25  25  25   0  25  25  25  25  25  25  25  25   0  25   0  25  25  25  25  25  25  25  25  25  25   0  25  25  25  25  25  25  25  25   0  25  25  25  25  25  25  25   0  25  25  25  25   0  25  25   0  25  25  25  25  25  25  25  25  25  25  25   0  25  25  25  25  25  25  25  25  25  25  25  25  25  25  25  25  25  25  25  25  25  25  25  25  25  25  25  25  25  25  25  25  25  25  25  25  25  25   0  25  25  25  25  25  25  25  25  25  25  25  25   0   0  25  25  25   0  25  25   0  25  25  25  25  25  25  25   0  25  25  25   0   0  25  25  25  25  25  25  25  25  25  25  25  25  25   0  25  25  25   0  25  25   0  25  25  25   0  25  25   0  25  25   0  25  25  25  25  25  25  25  25   0  25  25  25   0  25  25   0   0  25  25  25  25  25  25   0  25   0  25  25  25  25   0  25  25  25  25  25  25   0  25  25   0  25  25  25  25  25  25   0  25  25  25  25  25  25  25  25   0  25  25  25  25  25  25  25   0  25  25  25  25  25  25  25   0  25   0   0  25  25  25  25  25  25  25  25  25  25  25  25  25  25  25  25   0  25  25  25  25  25   0  25  25  25  25  25  25  25   0   0  25   0  25  25  25   0   0  25  25  25  25  25  25  25  25  25  25   0  25  25  25  25   0  25  25  25  25   0  25  25  25  25  25  25  25  25  25  25  25   0  25  25   0  25   0  25  25  25  25  25  25  25  25  25  25  25  25  25  25   0  25   0  25  25  25  25  25  25   0  25  25  25  25  25  25   0  25  25  25  25   0  25  25  25   0  25  25  25  25  25  25   0  25  25  25   0  25   0  25  25  25  25  25  25  25   0  25  25  25  25  25  25  25  25  25  25  25  25   0  25  25  25  25  25  25   0  25  25  25  25  25  25  25  25  25  25  25  25   0  25  25  25   0  25  25  25   0   0  25  25  25  25  25  25  25  25  25  25  25  25  25  25   0  25  25  25  25  25   0   0  25   0  25  25  25   0  25  25  25  25  25  25  25  25  25  25  25  25  25  25   0  25  25  25   0  25   0  25  25   0  25  25  25  25   0   0  25  25  25  25   0  25  25  25   0  25  25  25  25  25   0  25  25  25  25  25  25  25  25  25  25  25  25  25  25  25  25  25  25  25   0  25  25   0  25  25   0  25  25  25  25  25   0  25  25   0  25   0  25  25  25   0   0  25   0  25  25   0  25  25  25  25   0  25  25  25  25  25  25   0  25  25  25   0  25  25  25  25   0  25  25   0  25

  25  25  25  25   0  25  25  25  25  25  25   0   0  25  25  25  25  25  25  25   0  25  25  25  25  25  25  25  25  25  25  25   0  25  25   0  25   0  25  25  25  25  25  25  25   0  25   0  25   0  25   0  25  25   0  25  25  25  25  25   0  25   0  25  25  25  25  25   0   0  25  25  25  25  25  25  25  25  25  25  25  25  25  25  25  25   0  25  25  25  25   0  25  25  25   0  25  25  25  25   0  25  25  25  25  25  25  25   0  25  25  25   0  25  25  25  25  25  25  25  25   0  25   0  25  25  25  25  25  25  25  25  25  25   0  25  25  25  25  25  25  25  25   0  25  25  25  25  25  25  25   0  25  25  25  25   0  25  25   0  25  25  25  25  25  25  25  25  25  25  25   0  25  25  25  25  25  25  25  25  25  25  25  25  25  25  25  25  25  25  25  25  25  25  25  25  25  25  25  25  25  25  25  25  25  25  25  25  25  25   0  25  25  25  25  25  25  25  25  25  25  25  25   0   0  25  25  25   0  25  25   0  25  25  25  25  25  25  25   0  25  25  25   0   0  25  25  25  25  25  25  25  25  25  25  25  25  25   0  25  25  25   0  25  25   0  25  25  25   0  25  25   0  25  25   0  25  25  25  25  25  25  25  25   0  25  25  25   0  25  25   0   0  25  25  25  25  25  25   0  25   0  25  25  25  25   0  25  25  25  25  25  25   0  25  25   0  25  25  25  25  25  25   0  25  25  25  25  25  25  25  25   0  25  25  25  25  25  25  25   0  25  25  25  25  25  25  25   0  25   0   0  25  25  25  25  25  25  25  25  25  25  25  25  25  25  25  25   0  25  25  25  25  25   0  25  25  25  25  25  25  25   0   0  25   0  25  25  25   0   0  25  25  25  25  25  25  25  25  25  25   0  25  25  25  25   0  25  25  25  25   0  25  25  25  25  25  25  25  25  25  25  25   0  25  25   0  25   0  25  25  25  25  25  25  25  25  25  25  25  25  25  25   0  25   0  25  25  25  25  25  25   0  25  25  25  25  25  25   0  25  25  25  25   0  25  25  25   0  25  25  25  25  25  25   0  25  25  25   0  25   0  25  25  25  25  25  25  25   0  25  25  25  25  25  25  25  25  25  25  25  25   0  25  25  25  25  25  25   0  25  25  25  25  25  25  25  25  25  25  25  25   0  25  25  25   0  25  25  25   0   0  25  25  25  25  25  25  25  25  25  25  25  25  25  25   0  25  25  25  25  25   0   0  25   0  25  25  25   0  25  25  25  25  25  25  25  25  25  25  25  25  25  25   0  25  25  25   0  25   0  25  25   0  25  25  25  25   0   0  25  25  25  25   0  25  25  25   0  25  25  25  25  25   0  25  25  25  25  25  25  25  25  25  25  25  25  25  25  25  25  25  25  25   0  25  25   0  25  25   0  25  25  25  25  25   0  25  25   0  25   0  25  25  25   0   0  25   0  25  25   0  25  25  25  25   0  25  25  25  25  25  25   0  25  25  25   0  25  25  25  25   0  25  25   0  25

  22  22  22  22   0  22  22  22  22  22  22   0   0  22  22  22  22  22  22  22   0  22  22  22  22  22  22  22  22  22  22  22   0  22  22   0  22   0  22  22  22  22  22  22  22   0  22   0  22   0  22   0  22  22   0  22  22  22  22  22   0  22   0  22  22  22  22  22   0   0  22  22  22  22  22  22  22  22  22  22  22  22  22  22  22  22   0  22  22  22  22   0  22  22  22   0  22  22  22  22   0  22  22  22  22  22  22  22   0  22  22  22   0  22  22  22  22  22  22  22  22   0  22   0  22  22  22  22  22  22  22  22  22  22   0  22  22  22  22  22  22  22  22   0  22  22  22  22  22  22  22   0  22  22  22  22   0  22  22   0  22  22  22  22  22  22  22  22  22  22  22   0  22  22  22  22  22  22  22  22  22  22  22  22  22  22  22  22  22  22  22  22  22  22  22  22  22  22  22  22  22  22  22  22  22  22  22  22  22  22   0  22  22  22  22  22  22  22  22  22  22  22  22   0   0  22  22  22   0  22  22   0  22  22  22  22  22  22  22   0  22  22  22   0   0  22  22  22  22  22  22  22  22  22  22  22  22  22   0  22  22  22   0  22  22   0  22  22  22   0  22  22   0  22  22   0  22  22  22  22  22  22  22  22   0  22  22  22   0  22  22   0   0  22  22  22  22  22  22   0  22   0  22  22  22  22   0  22  22  22  22  22  22   0  22  22   0  22  22  22  22  22  22   0  22  22  22  22  22  22  22  22   0  22  22  22  22  22  22  22   0  22  22  22  22  22  22  22   0  22   0   0  22  22  22  22  22  22  22  22  22  22  22  22  22  22  22  22   0  22  22  22  22  22   0  22  22  22  22  22  22  22   0   0  22   0  22  22  22   0   0  22  22  22  22  22  22  22  22  22  22   0  22  22  22  22   0  22  22  22  22   0  22  22  22  22  22  22  22  22  22  22  22   0  22  22   0  22   0  22  22  22  22  22  22  22  22  22  22  22  22  22  22   0  22   0  22  22  22  22  22  22   0  22  22  22  22  22  22   0  22  22  22  22   0  22  22  22   0  22  22  22  22  22  22   0  22  22  22   0  22   0  22  22  22  22  22  22  22   0  22  22  22  22  22  22  22  22  22  22  22  22   0  22  22  22  22  22  22   0  22  22  22  22  22  22  22  22  22  22  22  22   0  22  22  22   0  22  22  22   0   0  22  22  22  22  22  22  22  22  22  22  22  22  22  22   0  22  22  22  22  22   0   0  22   0  22  22  22   0  22  22  22  22  22  22  22  22  22  22  22  22  22  22   0  22  22  22   0  22   0  22  22   0  22  22  22  22   0   0  22  22  22  22   0  22  22  22   0  22  22  22  22  22   0  22  22  22  22  22  22  22  22  22  22  22  22  22  22  22  22  22  22  22   0  22  22   0  22  22   0  22  22  22  22  22   0  22  22   0  22   0  22  22  22   0   0  22   0  22  22   0  22  22  22  22   0  22  22  22  22  22  22   0  22  22  22   0  22  22  22  22   0  22  22   0  22

************************************************************************
